c "54886.clq"
p edge 150 584
e 1 5
e 1 6
e 1 8
e 1 11
e 1 31
e 1 95
e 1 131
e 2 5
e 2 7
e 3 5
e 3 6
e 3 7
e 3 9
e 3 12
e 3 14
e 3 20
e 3 25
e 3 37
e 3 44
e 3 62
e 3 63
e 3 79
e 3 80
e 3 89
e 3 93
e 3 121
e 3 130
e 4 5
e 4 6
e 4 13
e 4 14
e 4 20
e 4 34
e 4 63
e 4 69
e 4 122
e 5 6
e 5 7
e 5 8
e 5 9
e 5 10
e 5 12
e 5 13
e 5 15
e 5 16
e 5 18
e 5 19
e 5 21
e 5 23
e 5 27
e 5 29
e 5 32
e 5 40
e 5 42
e 5 43
e 5 45
e 5 46
e 5 49
e 5 52
e 5 53
e 5 65
e 5 67
e 5 69
e 5 79
e 5 93
e 5 96
e 5 103
e 5 109
e 5 122
e 5 123
e 5 143
e 6 7
e 6 8
e 6 9
e 6 10
e 6 11
e 6 12
e 6 13
e 6 14
e 6 16
e 6 17
e 6 19
e 6 22
e 6 24
e 6 31
e 6 36
e 6 44
e 6 48
e 6 95
e 6 101
e 6 106
e 6 111
e 6 125
e 6 128
e 6 129
e 6 130
e 6 133
e 6 134
e 7 8
e 7 9
e 7 10
e 7 11
e 7 15
e 7 16
e 7 22
e 7 27
e 7 28
e 7 30
e 7 34
e 7 36
e 7 39
e 7 42
e 7 45
e 7 50
e 7 59
e 7 60
e 7 64
e 7 106
e 7 121
e 7 129
e 7 135
e 7 141
e 7 149
e 8 11
e 8 12
e 8 21
e 8 22
e 8 25
e 8 27
e 8 30
e 8 37
e 8 38
e 8 41
e 8 45
e 8 49
e 8 54
e 8 57
e 8 60
e 8 65
e 8 66
e 8 68
e 8 72
e 8 73
e 8 78
e 8 81
e 8 82
e 8 96
e 8 110
e 8 115
e 8 128
e 8 139
e 8 141
e 8 146
e 9 10
e 9 17
e 9 18
e 9 35
e 9 61
e 9 64
e 9 65
e 9 72
e 9 74
e 9 81
e 9 93
e 9 94
e 9 113
e 9 134
e 10 13
e 10 15
e 10 16
e 10 17
e 10 24
e 10 25
e 10 31
e 10 34
e 10 40
e 10 47
e 10 50
e 10 53
e 10 55
e 10 56
e 10 70
e 10 71
e 10 76
e 10 104
e 10 134
e 10 140
e 10 150
e 11 14
e 11 18
e 11 23
e 11 27
e 11 30
e 11 32
e 11 33
e 11 43
e 11 51
e 11 70
e 11 86
e 11 87
e 11 90
e 11 115
e 11 117
e 11 120
e 11 137
e 11 148
e 12 15
e 12 21
e 12 23
e 12 24
e 12 36
e 12 46
e 12 57
e 12 58
e 12 81
e 12 92
e 12 106
e 12 114
e 12 115
e 13 31
e 13 37
e 13 40
e 13 49
e 13 67
e 13 73
e 13 75
e 13 83
e 13 84
e 13 98
e 13 109
e 13 123
e 13 133
e 13 148
e 14 18
e 14 20
e 14 21
e 14 24
e 14 26
e 14 35
e 14 39
e 14 41
e 14 44
e 14 53
e 14 54
e 14 57
e 14 65
e 14 68
e 14 85
e 14 92
e 14 100
e 14 105
e 14 114
e 14 121
e 14 124
e 14 130
e 15 17
e 15 23
e 15 25
e 15 26
e 15 28
e 15 29
e 15 30
e 15 42
e 15 43
e 15 47
e 15 62
e 15 73
e 15 79
e 15 81
e 15 82
e 15 85
e 15 89
e 15 101
e 15 102
e 15 113
e 15 116
e 15 117
e 15 128
e 15 138
e 15 147
e 16 19
e 16 26
e 16 67
e 16 76
e 16 83
e 16 104
e 16 107
e 16 113
e 16 114
e 16 127
e 17 19
e 17 28
e 17 29
e 17 32
e 17 33
e 17 35
e 17 38
e 17 42
e 17 53
e 17 60
e 17 70
e 17 78
e 17 84
e 17 90
e 17 91
e 17 93
e 17 97
e 17 110
e 17 114
e 17 116
e 17 119
e 17 124
e 17 137
e 17 147
e 17 149
e 18 20
e 18 39
e 18 50
e 18 85
e 18 90
e 18 97
e 18 131
e 18 146
e 18 150
e 19 22
e 19 28
e 19 47
e 19 48
e 19 51
e 19 66
e 19 68
e 19 76
e 19 146
e 20 52
e 21 32
e 21 34
e 21 36
e 21 41
e 21 43
e 21 47
e 21 75
e 21 84
e 21 97
e 21 98
e 21 104
e 21 126
e 22 26
e 22 29
e 22 37
e 22 48
e 22 49
e 22 59
e 22 62
e 22 72
e 22 118
e 23 35
e 23 46
e 23 52
e 23 63
e 23 69
e 23 97
e 23 108
e 23 140
e 25 66
e 25 95
e 25 138
e 25 142
e 26 45
e 26 55
e 26 80
e 26 110
e 26 148
e 27 48
e 27 64
e 27 91
e 27 100
e 27 145
e 28 40
e 28 54
e 28 107
e 28 111
e 28 132
e 29 33
e 29 58
e 29 89
e 29 108
e 29 140
e 29 148
e 30 33
e 30 39
e 30 61
e 30 73
e 30 102
e 30 111
e 30 112
e 30 116
e 30 145
e 31 99
e 32 38
e 32 98
e 33 57
e 33 67
e 33 124
e 34 71
e 35 88
e 35 143
e 37 38
e 37 44
e 37 147
e 37 149
e 38 50
e 38 60
e 38 78
e 38 92
e 38 107
e 38 139
e 39 46
e 39 58
e 39 72
e 39 90
e 39 105
e 40 41
e 40 51
e 40 56
e 40 69
e 40 74
e 40 87
e 40 88
e 40 92
e 40 103
e 40 125
e 40 126
e 40 133
e 41 59
e 41 105
e 42 54
e 42 144
e 43 77
e 43 88
e 43 101
e 43 126
e 44 52
e 44 79
e 44 119
e 45 59
e 45 70
e 45 74
e 45 82
e 45 94
e 45 103
e 45 109
e 46 51
e 46 61
e 46 78
e 46 94
e 46 96
e 46 100
e 46 101
e 46 115
e 46 119
e 46 132
e 46 139
e 48 63
e 49 128
e 50 108
e 51 58
e 51 66
e 51 75
e 51 136
e 52 62
e 52 76
e 52 84
e 52 87
e 52 91
e 52 119
e 52 121
e 52 123
e 53 55
e 53 56
e 53 77
e 54 55
e 54 71
e 54 83
e 54 117
e 55 56
e 55 99
e 55 120
e 55 145
e 56 136
e 56 147
e 57 61
e 57 64
e 57 88
e 57 98
e 57 112
e 57 131
e 57 136
e 58 77
e 58 127
e 59 80
e 59 91
e 59 94
e 59 137
e 60 71
e 60 124
e 62 75
e 62 99
e 62 102
e 62 116
e 62 139
e 62 146
e 64 80
e 64 95
e 64 105
e 64 109
e 64 123
e 66 68
e 66 150
e 67 87
e 67 120
e 69 113
e 70 74
e 70 86
e 70 136
e 71 134
e 73 102
e 73 125
e 73 135
e 73 138
e 76 77
e 77 99
e 78 85
e 78 112
e 78 118
e 78 122
e 79 96
e 79 107
e 79 131
e 80 86
e 80 122
e 81 82
e 81 83
e 81 100
e 81 118
e 81 127
e 82 108
e 83 89
e 83 106
e 83 138
e 84 86
e 84 126
e 85 117
e 86 149
e 88 135
e 90 103
e 91 144
e 94 132
e 95 118
e 96 130
e 99 110
e 102 104
e 102 135
e 104 111
e 104 140
e 104 143
e 106 125
e 106 141
e 107 129
e 107 144
e 107 145
e 110 120
e 111 112
e 111 132
e 116 137
e 118 142
e 118 143
e 120 127
e 121 141
e 124 144
e 125 129
e 126 150
e 131 133
e 138 142
e 141 142
